N = 48;
M = 114;
Edge_Start = [1, 1, 2, 2, 3, 3, 3, 4, 4, 5, 5, 5, 6, 6, 7, 7, 8, 8, 9, 10, 10, 11, 11, 12, 12, 12, 13, 13, 13, 14, 14, 14, 15, 15, 16, 16, 17, 17, 18, 19, 19, 20, 20, 21, 21, 22, 22, 22, 23, 23, 23, 24, 24, 24, 25, 25, 26, 26, 26, 27, 27, 27, 28, 28, 28, 29, 29, 30, 30, 31, 31, 31, 32, 32, 32, 33, 33, 33, 34, 34, 34, 35, 35, 35, 36, 36, 36, 37, 37, 37, 38, 38, 38, 39, 40, 40, 41, 41, 42, 42, 42, 43, 43, 44, 44, 44, 45, 45, 46, 46, 46, 47, 47, 48];
Edge_End = [2, 10, 1, 3, 2, 4, 12, 3, 5, 4, 6, 14, 5, 7, 6, 8, 7, 9, 8, 1, 11, 10, 12, 3, 11, 13, 12, 14, 23, 5, 13, 15, 14, 16, 15, 17, 16, 27, 19, 18, 29, 21, 30, 20, 22, 21, 23, 32, 13, 22, 24, 23, 25, 34, 24, 26, 25, 27, 36, 17, 26, 28, 27, 29, 38, 19, 28, 20, 31, 30, 32, 40, 22, 31, 33, 32, 34, 42, 24, 33, 35, 34, 36, 44, 26, 35, 37, 36, 38, 46, 28, 37, 39, 38, 31, 41, 40, 42, 33, 41, 43, 42, 44, 35, 43, 45, 44, 46, 37, 45, 47, 46, 48, 47];
L = [6, 5, 6, 16, 16, 2, 8, 2, 9, 9, 6, 7, 6, 17, 17, 16, 16, 1, 1, 5, 13, 13, 6, 8, 6, 15, 15, 12, 2, 7, 12, 16, 16, 12, 12, 8, 8, 11, 5, 5, 1, 16, 4, 16, 7, 7, 1, 7, 2, 1, 10, 10, 3, 9, 3, 11, 11, 1, 19, 11, 1, 3, 3, 11, 5, 1, 11, 4, 5, 5, 11, 15, 7, 11, 14, 14, 9, 18, 9, 9, 6, 6, 6, 8, 19, 6, 18, 18, 2, 8, 5, 2, 7, 7, 15, 5, 5, 16, 18, 16, 5, 5, 9, 8, 9, 17, 17, 8, 8, 8, 18, 18, 11, 11];
Start = 1;
End = 48;
